4.0 -1 0
4.0 -2 0
4.0 -3 0
4.0 -4 0
4.0 -5 0
4.0 -6 0
4.0 -7 0
4.0 -8 0
4.0 -9 0
4.0 -10 0
4.0 -11 0
4.0 -12 0
4.0 -13 0
4.0 -14 0
4.0 -15 0
4.0 -16 0
4.0 -17 0
4.0 -18 0
4.0 -19 0
4.0 -20 0
4.0 -21 0
4.0 -22 0
4.0 -23 0
4.0 -24 0
4.0 -25 0
4.0 -26 0
4.0 -27 0
4.0 -28 0
4.0 -29 0
4.0 -30 0
4.0 -31 0
4.0 -32 0
4.0 -33 0
4.0 -34 0
4.0 -35 0
4.0 -36 0
4.0 -37 0
4.0 -38 0
4.0 -39 0
4.0 -40 0
4.0 -41 0
4.0 -42 0
4.0 -43 0
4.0 -44 0
4.0 -45 0
4.0 -46 0
4.0 -47 0
4.0 -48 0
4.0 -49 0
4.0 -50 0
4.0 -51 0
4.0 -52 0
4.0 -53 0
4.0 -54 0
4.0 -55 0
4.0 -56 0
4.0 -57 0
4.0 -58 0
4.0 -59 0
4.0 -60 0
4.0 -61 0
4.0 -62 0
4.0 -63 0
4.0 -64 0
4.0 -65 0
4.0 -66 0
4.0 -67 0
4.0 -68 0
4.0 -69 0
4.0 -70 0
4.0 -71 0
4.0 -72 0
4.0 -73 0
4.0 -74 0
4.0 -75 0
4.0 -76 0
4.0 -77 0
4.0 -78 0
4.0 -79 0
4.0 -80 0
4.0 -81 0
4.0 -82 0
4.0 -83 0
4.0 -84 0
4.0 -85 0
4.0 -86 0
4.0 -87 0
4.0 -88 0
4.0 -89 0
4.0 -90 0
4.0 -91 0
4.0 -92 0
4.0 -93 0
4.0 -94 0
4.0 -95 0
4.0 -96 0
4.0 -97 0
4.0 -98 0
4.0 -99 0
4.0 -100 0
4.0 -101 0
4.0 -102 0
4.0 -103 0
4.0 -104 0
4.0 -105 0
4.0 -106 0
4.0 -107 0
4.0 -108 0
4.0 -109 0
4.0 -110 0
4.0 -111 0
4.0 -112 0
4.0 -113 0
4.0 -114 0
4.0 -115 0
4.0 -116 0
4.0 -117 0
4.0 -118 0
4.0 -119 0
4.0 -120 0
4.0 -121 0
4.0 -122 0
4.0 -123 0
4.0 -124 0
4.0 -125 0
4.0 -126 0
4.0 -127 0
4.0 -128 0
4.0 -129 0
4.0 -130 0
4.0 -131 0
4.0 -132 0
4.0 -133 0
4.0 -134 0
4.0 -135 0
4.0 -136 0
4.0 -137 0
4.0 -138 0
4.0 -139 0
4.0 -140 0
4.0 -141 0
4.0 -142 0
4.0 -143 0
4.0 -144 0
4.0 -145 0
4.0 -146 0
4.0 -147 0
4.0 -148 0
4.0 -149 0
4.0 -150 0
4.0 -151 0
4.0 -152 0
4.0 -153 0
4.0 -154 0
4.0 -155 0
4.0 -156 0
4.0 -157 0
4.0 -158 0
4.0 -159 0
4.0 -160 0
4.0 -161 0
4.0 -162 0
4.0 -163 0
4.0 -164 0
4.0 -165 0
4.0 -166 0
4.0 -167 0
4.0 -168 0
4.0 -169 0
4.0 -170 0
4.0 -171 0
4.0 -172 0
4.0 -173 0
4.0 -174 0
4.0 -175 0
4.0 -176 0
4.0 -177 0
4.0 -178 0
4.0 -179 0
4.0 -180 0
4.0 -181 0
4.0 -182 0
4.0 -183 0
4.0 -184 0
4.0 -185 0
4.0 -186 0
4.0 -187 0
4.0 -188 0
4.0 -189 0
4.0 -190 0
4.0 -191 0
4.0 -192 0
4.0 -193 0
4.0 -194 0
4.0 -195 0
4.0 -196 0
4.0 -197 0
4.0 -198 0
4.0 -199 0
4.0 -200 0
4.0 -201 0
4.0 -202 0
4.0 -203 0
4.0 -204 0
4.0 -205 0
4.0 -206 0
4.0 -207 0
4.0 -208 0
4.0 -209 0
4.0 -210 0
4.0 -211 0
4.0 -212 0
4.0 -213 0
4.0 -214 0
4.0 -215 0
4.0 -216 0
4.0 -217 0
4.0 -218 0
4.0 -219 0
4.0 -220 0
4.0 -221 0
4.0 -222 0
4.0 -223 0
4.0 -224 0
4.0 -225 0
4.0 -226 0
4.0 -227 0
4.0 -228 0
4.0 -229 0
4.0 -230 0
4.0 -231 0
4.0 -232 0
4.0 -233 0
4.0 -234 0
4.0 -235 0
4.0 -236 0
4.0 -237 0
4.0 -238 0
4.0 -239 0
4.0 -240 0
h 1 2 4 7 11 0
h 1 3 5 8 12 0
h 1 16 17 19 22 0
h 1 26 27 29 32 0
h 2 3 6 9 13 0
h 2 16 18 20 23 0
h 2 42 43 45 48 0
h 3 26 28 30 33 0
h 3 42 44 46 49 0
h 16 26 36 37 39 0
h 16 42 52 53 55 0
h 26 42 58 59 61 0
h 4 5 6 10 14 0
h 4 17 18 21 24 0
h 4 67 68 70 73 0
h 5 27 28 31 34 0
h 5 67 69 71 74 0
h 17 27 36 38 40 0
h 17 67 77 78 80 0
h 27 67 83 84 86 0
h 6 43 44 47 50 0
h 6 68 69 72 75 0
h 18 43 52 54 56 0
h 18 68 77 79 81 0
h 43 68 92 93 95 0
h 28 44 58 60 62 0
h 28 69 83 85 87 0
h 44 69 92 94 96 0
h 36 52 58 64 65 0
h 36 77 83 89 90 0
h 52 77 92 98 99 0
h 58 83 92 101 102 0
h 7 8 9 10 15 0
h 7 19 20 21 25 0
h 7 105 106 108 111 0
h 8 29 30 31 35 0
h 8 105 107 109 112 0
h 19 29 37 38 41 0
h 19 105 115 116 118 0
h 29 105 121 122 124 0
h 9 45 46 47 51 0
h 9 106 107 110 113 0
h 20 45 53 54 57 0
h 20 106 115 117 119 0
h 45 106 130 131 133 0
h 30 46 59 60 63 0
h 30 107 121 123 125 0
h 46 107 130 132 134 0
h 37 53 59 64 66 0
h 37 115 121 127 128 0
h 53 115 130 136 137 0
h 59 121 130 139 140 0
h 10 70 71 72 76 0
h 10 108 109 110 114 0
h 21 70 78 79 82 0
h 21 108 116 117 120 0
h 70 108 143 144 146 0
h 31 71 84 85 88 0
h 31 109 122 123 126 0
h 71 109 143 145 147 0
h 38 78 84 89 91 0
h 38 116 122 127 129 0
h 78 116 143 149 150 0
h 84 122 143 152 153 0
h 47 72 93 94 97 0
h 47 110 131 132 135 0
h 72 110 144 145 148 0
h 54 79 93 98 100 0
h 54 117 131 136 138 0
h 79 117 144 149 151 0
h 93 131 144 156 157 0
h 60 85 94 101 103 0
h 60 123 132 139 141 0
h 85 123 145 152 154 0
h 94 132 145 156 158 0
h 64 89 98 101 104 0
h 64 127 136 139 142 0
h 89 127 149 152 155 0
h 98 136 149 156 159 0
h 101 139 152 156 160 0
h 11 12 13 14 15 0
h 11 22 23 24 25 0
h 11 161 162 164 167 0
h 12 32 33 34 35 0
h 12 161 163 165 168 0
h 22 32 39 40 41 0
h 22 161 171 172 174 0
h 32 161 177 178 180 0
h 13 48 49 50 51 0
h 13 162 163 166 169 0
h 23 48 55 56 57 0
h 23 162 171 173 175 0
h 48 162 186 187 189 0
h 33 49 61 62 63 0
h 33 163 177 179 181 0
h 49 163 186 188 190 0
h 39 55 61 65 66 0
h 39 171 177 183 184 0
h 55 171 186 192 193 0
h 61 177 186 195 196 0
h 14 73 74 75 76 0
h 14 164 165 166 170 0
h 24 73 80 81 82 0
h 24 164 172 173 176 0
h 73 164 199 200 202 0
h 34 74 86 87 88 0
h 34 165 178 179 182 0
h 74 165 199 201 203 0
h 40 80 86 90 91 0
h 40 172 178 183 185 0
h 80 172 199 205 206 0
h 86 178 199 208 209 0
h 50 75 95 96 97 0
h 50 166 187 188 191 0
h 75 166 200 201 204 0
h 56 81 95 99 100 0
h 56 173 187 192 194 0
h 81 173 200 205 207 0
h 95 187 200 212 213 0
h 62 87 96 102 103 0
h 62 179 188 195 197 0
h 87 179 201 208 210 0
h 96 188 201 212 214 0
h 65 90 99 102 104 0
h 65 183 192 195 198 0
h 90 183 205 208 211 0
h 99 192 205 212 215 0
h 102 195 208 212 216 0
h 15 111 112 113 114 0
h 15 167 168 169 170 0
h 25 111 118 119 120 0
h 25 167 174 175 176 0
h 111 167 217 218 220 0
h 35 112 124 125 126 0
h 35 168 180 181 182 0
h 112 168 217 219 221 0
h 41 118 124 128 129 0
h 41 174 180 184 185 0
h 118 174 217 223 224 0
h 124 180 217 226 227 0
h 51 113 133 134 135 0
h 51 169 189 190 191 0
h 113 169 218 219 222 0
h 57 119 133 137 138 0
h 57 175 189 193 194 0
h 119 175 218 223 225 0
h 133 189 218 230 231 0
h 63 125 134 140 141 0
h 63 181 190 196 197 0
h 125 181 219 226 228 0
h 134 190 219 230 232 0
h 66 128 137 140 142 0
h 66 184 193 196 198 0
h 128 184 223 226 229 0
h 137 193 223 230 233 0
h 140 196 226 230 234 0
h 76 114 146 147 148 0
h 76 170 202 203 204 0
h 114 170 220 221 222 0
h 82 120 146 150 151 0
h 82 176 202 206 207 0
h 120 176 220 224 225 0
h 146 202 220 235 236 0
h 88 126 147 153 154 0
h 88 182 203 209 210 0
h 126 182 221 227 228 0
h 147 203 221 235 237 0
h 91 129 150 153 155 0
h 91 185 206 209 211 0
h 129 185 224 227 229 0
h 150 206 224 235 238 0
h 153 209 227 235 239 0
h 97 135 148 157 158 0
h 97 191 204 213 214 0
h 135 191 222 231 232 0
h 148 204 222 236 237 0
h 100 138 151 157 159 0
h 100 194 207 213 215 0
h 138 194 225 231 233 0
h 151 207 225 236 238 0
h 157 213 231 236 240 0
h 103 141 154 158 160 0
h 103 197 210 214 216 0
h 141 197 228 232 234 0
h 154 210 228 237 239 0
h 158 214 232 237 240 0
h 104 142 155 159 160 0
h 104 198 211 215 216 0
h 142 198 229 233 234 0
h 155 211 229 238 239 0
h 159 215 233 238 240 0
h 160 216 234 239 240 0
